
Gurobi 7.0.1 (linux64) logging started Mon Jul  3 08:39:41 2017

Optimize a model with 28874 rows, 14464 columns and 80225 nonzeros
Variable types: 0 continuous, 14464 integer (14464 binary)
Coefficient statistics:
  Matrix range     [1e+00, 9e+00]
  Objective range  [1e+00, 1e+00]
  Bounds range     [1e+00, 1e+00]
  RHS range        [1e+00, 5e+01]
Presolve removed 28741 rows and 14390 columns
Presolve time: 0.04s
Presolved: 133 rows, 74 columns, 817 nonzeros
Variable types: 0 continuous, 74 integer (74 binary)

Root relaxation: objective 5.000000e+00, 36 iterations, 0.00 seconds

    Nodes    |    Current Node    |     Objective Bounds      |     Work
 Expl Unexpl |  Obj  Depth IntInf | Incumbent    BestBd   Gap | It/Node Time

     0     0    5.00000    0    2          -    5.00000      -     -    0s
     0     0    5.00000    0    3          -    5.00000      -     -    0s
     0     0    5.00000    0    2          -    5.00000      -     -    0s
     0     0    5.00000    0    2          -    5.00000      -     -    0s
     0     0    5.00000    0    2          -    5.00000      -     -    0s
     0     2    5.00000    0    2          -    5.00000      -     -    0s
*   80    48               9       4.0000000    4.00000  0.00%   1.9    0s

Cutting planes:
  Gomory: 1
  MIR: 1
  Lazy constraints: 53

Explored 95 nodes (294 simplex iterations) in 0.58 seconds
Thread count was 12 (of 12 available processors)

Solution count 1: 4 
Pool objective bound 4

Optimal solution found (tolerance 1.00e-04)
Best objective 4.000000000000e+00, best bound 4.000000000000e+00, gap 0.0000%
Optimize a model with 28874 rows, 14464 columns and 80225 nonzeros
Variable types: 0 continuous, 14464 integer (14464 binary)
Coefficient statistics:
  Matrix range     [1e+00, 9e+00]
  Objective range  [2e-01, 8e-01]
  Bounds range     [1e+00, 1e+00]
  RHS range        [1e+00, 5e+01]
Presolve removed 28741 rows and 14390 columns
Presolve time: 0.03s
Presolved: 133 rows, 74 columns, 817 nonzeros

Loaded MIP start with objective 1.11022e-16

Variable types: 0 continuous, 74 integer (74 binary)

Root relaxation: objective 2.923077e+00, 14 iterations, 0.00 seconds

    Nodes    |    Current Node    |     Objective Bounds      |     Work
 Expl Unexpl |  Obj  Depth IntInf | Incumbent    BestBd   Gap | It/Node Time

     0     0    1.92308    0    2    0.00000    1.92308      -     -    0s
     0     0    1.92308    0    3    0.00000    1.92308      -     -    0s
     0     0    1.92308    0    2    0.00000    1.92308      -     -    0s
     0     0    1.92308    0    4    0.00000    1.92308      -     -    0s
     0     0    1.92308    0    2    0.00000    1.92308      -     -    0s
     0     0    1.92308    0    2    0.00000    1.92308      -     -    0s
     0     2    1.92308    0    2    0.00000    1.92308      -     -    0s
*   13     0               5       0.9230769    0.92308  0.00%   5.0    0s

Cutting planes:
  MIR: 2
  Lazy constraints: 15

Explored 15 nodes (214 simplex iterations) in 0.21 seconds
Thread count was 12 (of 12 available processors)

Solution count 2: 0.923077 1.11022e-16 
Pool objective bound 0.923077

Optimal solution found (tolerance 1.00e-04)
Best objective 9.230769230769e-01, best bound 9.230769230769e-01, gap 0.0000%
Optimize a model with 28874 rows, 14464 columns and 80225 nonzeros
Variable types: 0 continuous, 14464 integer (14464 binary)
Coefficient statistics:
  Matrix range     [1e+00, 9e+00]
  Objective range  [2e-01, 8e-01]
  Bounds range     [1e+00, 1e+00]
  RHS range        [1e+00, 5e+01]
Presolve removed 28741 rows and 14390 columns
Presolve time: 0.03s
Presolved: 133 rows, 74 columns, 817 nonzeros

Loaded MIP start with objective -0

Variable types: 0 continuous, 74 integer (74 binary)

Root relaxation: objective 2.000000e+00, 14 iterations, 0.00 seconds

    Nodes    |    Current Node    |     Objective Bounds      |     Work
 Expl Unexpl |  Obj  Depth IntInf | Incumbent    BestBd   Gap | It/Node Time

     0     0    1.00000    0    2   -0.00000    1.00000      -     -    0s
     0     0    1.00000    0    3   -0.00000    1.00000      -     -    0s
     0     0    1.00000    0    2   -0.00000    1.00000      -     -    0s
     0     1    1.00000    0    2   -0.00000    1.00000      -     -    0s

Cutting planes:
  Lazy constraints: 8

Explored 2 nodes (137 simplex iterations) in 0.14 seconds
Thread count was 12 (of 12 available processors)

Solution count 1: -0 
Pool objective bound -0

Optimal solution found (tolerance 1.00e-04)
Best objective -0.000000000000e+00, best bound -0.000000000000e+00, gap -
